Version identifier: 22.1.1.0 | 2022-11-28 | 9160aff4d
CPXPARAM_ClockType                               1
CPXPARAM_Read_DataCheck                          1
CPXPARAM_Threads                                 1
CPXPARAM_TimeLimit                               7200
CPXPARAM_MIP_Tolerances_AbsMIPGap                0
CPXPARAM_MIP_Tolerances_MIPGap                   0
CPXPARAM_MIP_Tolerances_Integrality              0
Tried aggregator 2 times.
MIP Presolve eliminated 56324 rows and 1 columns.
MIP Presolve modified 28802 coefficients.
Aggregator did 2006 substitutions.
Reduced MIP has 29919 rows, 6017 columns, and 148352 nonzeros.
Reduced MIP has 6017 binaries, 0 generals, 0 SOSs, and 0 indicators.
Presolve time = 0.78 sec. (480.34 ticks)
Probing time = 0.03 sec. (13.81 ticks)
Tried aggregator 1 time.
Detecting symmetries...
MIP Presolve eliminated 110 rows and 4 columns.
MIP Presolve modified 1 coefficients.
Reduced MIP has 29809 rows, 6013 columns, and 146507 nonzeros.
Reduced MIP has 6013 binaries, 0 generals, 0 SOSs, and 0 indicators.
Presolve time = 0.37 sec. (234.89 ticks)
Probing time = 0.01 sec. (4.55 ticks)
Clique table members: 39951.
MIP emphasis: balance optimality and feasibility.
MIP search method: dynamic search.
Parallel mode: none, using 1 thread.
Root relaxation solution time = 2.02 sec. (802.65 ticks)

        Nodes                                         Cuts/
   Node  Left     Objective  IInf  Best Integer    Best Bound    ItCnt     Gap

      0     0      134.5948  1118                    134.5948     6400         
      0     0      118.0000   912                   Cuts: 189    28393         
      0     0      118.0000   976                   Cuts: 468    54683         
      0     0      118.0000  1001                     Cuts: 9    81028         
Heuristic still looking.
*     0+    0                          118.0000      118.0000             0.00%
      0     0        cutoff            118.0000      118.0000    81028    0.00%
Elapsed time = 565.91 sec. (169573.11 ticks, tree = 0.01 MB, solutions = 1)

Clique cuts applied:  17
Zero-half cuts applied:  2

Root node processing (before b&c):
  Real time             =  565.91 sec. (169573.51 ticks)
Sequential b&c:
  Real time             =    0.00 sec. (0.00 ticks)
                          ------------
Total (root+branch&cut) =  565.91 sec. (169573.51 ticks)
Solution is feasible.

---------------------
@@@ MIP_optimal
>>> Benchmark mc2024_track1_033.cnf k 2 OPT 118 TimeCost 580.4523830413818 TimeSolve 568.3010325431824 TimeRead 0.05937504768371582 TimeTrans 12.091975450515747
